CMD:
./solvers/bin/cadical --plain --no-reduce -t 1600 ./data/cnfs//qspiflash_dualflexpress_divthree-p006/qspiflash_dualflexpress_divthree-p006.85.cnf

c --- [ banner ] -------------------------------------------------------------
c 
c CaDiCaL SAT Solver
c Copyright (c) 2016-2024
c A. Biere, M. Fleury, N. Froleyks, K. Fazekas, F. Pollitt, T. Faller
c JKU Linz, University of Freiburg, TU Wien
c 
c Version 2.1.3 5296d3d2a9bf48c154ab2acb5e44625776d821bf
c g++ (Gentoo 12.3.1_p20230526 p2) 12.3.1 20230526 -Wall -Wextra -O3 -DNDEBUG
c Sat Aug 9 07:26:21 PDT 2025 Linux cedar2.int.cedar.computecanada.ca 5.14.0-362.24.2.el9_3.x86_64 x86_64
c 
c --- [ limit ] --------------------------------------------------------------
c 
c setting time limit to 1600 seconds real time (due to '-t 1600')
c 
c --- [ parsing input ] ------------------------------------------------------
c 
c reading DIMACS file from './data/cnfs//qspiflash_dualflexpress_divthree-p006/qspiflash_dualflexpress_divthree-p006.85.cnf'
c opening file to read './data/cnfs//qspiflash_dualflexpress_divthree-p006/qspiflash_dualflexpress_divthree-p006.85.cnf'
c found 'p cnf 253384 740024' header
c parsed 740024 clauses in 0.12 seconds process time
c 
c --- [ options ] ------------------------------------------------------------
c 
c   --compact=false                (different from default 'true')
c   --decompose=false              (different from default 'true')
c   --deduplicate=false            (different from default 'true')
c   --elim=false                   (different from default 'true')
c   --probe=false                  (different from default 'true')
c   --reduce=false                 (different from default 'true')
c   --subsume=false                (different from default 'true')
c   --ternary=false                (different from default 'true')
c   --transred=false               (different from default 'true')
c   --vivify=false                 (different from default 'true')
c 
c --- [ solving ] ------------------------------------------------------------
c 
c time measured in process time since initialization
c 
c  seconds   reductions  redundant  irredundant
c          MB    restarts       trail       variables
c           level   conflicts       glue          remaining
c 
c *  0.12 116  0 0   0    0    0  0% 0 717584 238135 94%
c {  0.18 120  0 0   0    0    0  0% 0 717584 238135 94%
c i  0.19 120  3 0   0   10    4 14% 1 717584 238134 94%
c i  0.22 121 166 0   0  259  172 15% 4 717584 238130 94%
c i  0.22 121 165 0   0  260  172 15% 4 717584 238092 94%
c }  0.34 122 85 0  27 1001  885 21% 2 717584 238090 94%
c [  0.34 122  0 0  27 1001  885  0% 0 717584 238090 94%
c O  0.38 122 1920 0  27 1002  886 98% 3 717584 238090 94%
c i  0.39 122 1897 0  27 1005  888 98% 1 717584 237982 94%
c i  0.39 122 1802 0  27 1143 1010 94% 3 717584 237888 94%
c i  0.40 122 1780 0  27 1255 1112 93% 3 717584 237797 94%
c ]  0.91 122 947 0  28 3003 2684 59% 4 717584 237681 94%
c {  0.91 122 85 0  28 3003 2684 21% 2 717584 237681 94%
c F  0.91 122 85 0  29 3004 2685 21% 2 717584 237681 94%
c i  0.92 122 82 0  37 3040 2714 20% 3 717584 237641 94%
c i  0.93 122 80 0  47 3084 2753 20% 3 717584 237597 94%
c i  0.94 122 78 0  60 3142 2800 19% 3 717584 237590 94%
c i  0.94 122 77 0  61 3144 2801 19% 3 717584 237115 94%
c i  0.94 122 77 0  61 3145 2801 19% 3 717584 236968 94%
c i  0.95 122 75 0  72 3198 2851 19% 3 717584 236964 94%
c 
c  seconds   reductions  redundant  irredundant
c          MB    restarts       trail       variables
c           level   conflicts       glue          remaining
c 
c i  0.95 122 74 0  76 3212 2863 19% 3 717584 236960 94%
c i  0.95 122 74 0  76 3214 2864 19% 3 717584 236639 93%
c i  0.95 122 74 0  77 3217 2864 19% 3 717584 236410 93%
c i  1.01 122 72 0  97 3379 3015 18% 3 717584 236400 93%
c i  1.01 122 72 0  97 3391 3025 18% 3 717584 236333 93%
c i  1.01 122 71 0  97 3408 3039 18% 3 717584 236303 93%
c i  1.01 122 71 0  98 3419 3046 18% 3 717584 236288 93%
c i  1.07 122 72 0 118 3606 3220 18% 3 717584 236283 93%
c i  1.12 123 68 0 163 3819 3408 17% 3 717584 236135 93%
c i  1.26 123 63 0 239 4171 3722 17% 3 717584 236131 93%
c i  1.26 123 63 0 240 4172 3722 17% 3 717584 236127 93%
c i  1.34 123 58 0 295 4533 4064 17% 3 717584 236111 93%
c i  1.34 123 58 0 296 4534 4064 17% 3 717584 236101 93%
c i  1.34 123 58 0 302 4558 4085 17% 3 717584 236087 93%
c i  1.38 123 57 0 325 4659 4171 17% 3 717584 236082 93%
c i  1.39 123 57 0 325 4673 4182 17% 3 717584 235978 93%
c i  1.39 123 57 0 325 4687 4194 17% 3 717584 235756 93%
c i  1.39 123 56 0 325 4718 4219 17% 3 717584 235755 93%
c i  1.40 123 56 0 325 4743 4238 17% 3 717584 235739 93%
c i  1.68 123 52 0 464 5628 5033 17% 3 717584 235648 93%
c 
c  seconds   reductions  redundant  irredundant
c          MB    restarts       trail       variables
c           level   conflicts       glue          remaining
c 
c i  1.68 123 52 0 464 5649 5052 16% 3 717584 235474 93%
c i  1.68 123 52 0 464 5684 5070 16% 3 717584 235408 93%
c #  1.80 123 50 0 501 6005 5358 17% 3 717584 235408 93%
c i  1.84 123 50 0 519 6120 5463 17% 3 717584 235398 93%
c i  1.94 123 48 0 580 6468 5769 17% 3 717584 235394 93%
c i  2.04 123 49 0 618 6832 6105 17% 3 717584 235390 93%
c i  2.05 123 49 0 620 6845 6113 17% 3 717584 235343 93%
c }  2.08 123 49 0 635 7003 6260 17% 3 717584 235343 93%
c [  2.08 123 947 0 635 7003 6260 59% 4 717584 235343 93%
c i  2.14 123 791 0 636 7425 6632 52% 4 717584 235331 93%
c i  2.14 123 786 0 636 7442 6647 51% 4 717584 235318 93%
c i  2.15 123 700 0 636 7793 6974 48% 5 717584 235292 93%
c i  2.17 123 633 0 636 8138 7296 45% 6 717584 235282 93%
c I  2.33 124 433 0 637 10007 8973 36% 7 717584 235282 93%
c i  2.36 124 423 0 637 10148 9100 35% 7 717584 235189 93%
c i  2.40 124 410 0 638 10333 9250 35% 7 717584 235185 93%
c i  2.44 124 404 0 638 10430 9328 35% 7 717584 235170 93%
c i  2.50 124 388 0 638 10673 9523 34% 7 717584 234543 93%
c i  2.51 124 387 0 638 10684 9531 34% 7 717584 234300 92%
c i  2.51 124 382 0 638 10751 9589 34% 7 717584 234187 92%
c 
c  seconds    reductions   redundant  irredundant
c          MB     restarts        trail       variables
c            level    conflicts       glue          remaining
c 
c ]  2.52 124 380 0 638 10788 9610 33% 7 717584 227886 90%
c 0  2.52 124 380 0 638 10788 9610 33% 7 717584 227886 90%
c 
c --- [ result ] -------------------------------------------------------------
c 
s UNSATISFIABLE
c 
c --- [ run-time profiling ] -------------------------------------------------
c 
c process time taken by individual solving procedures
c (percentage relative to process time for solving)
c 
c         2.40   99.99% search
c         1.33   55.69% unstable
c         1.01   41.94% stable
c         0.12    4.96% parse
c         0.06    2.36% lucky
c         0.00    0.00% simplify
c   =================================
c         2.40   95.25% solve
c 
c last line shows process time for solving
c (percentage relative to total process time)
c 
c --- [ statistics ] ---------------------------------------------------------
c 
c chronological:              4485        41.57 %  of conflicts
c conflicts:                 10788      4500.88    per second
c decisions:                 48829     20372.05    per second
c fixed:                     25464        10.05 %  of all variables
c learned:                   10273        95.23 %  per conflict
c learned_lits:             197070       100.00 %  learned literals
c minimized:                     0         0.00 %  learned literals
c shrunken:                  21796        11.06 %  learned literals
c minishrunken:              33914        17.21 %  learned literals
c otfs:                        123         1.14 %  of conflict
c propagations:           35894651        14.98 M  per second
c rephased:                      4      2697.00    interval
c restarts:                    638        16.91    interval
c stabilizing:                   2        53.63 %  of conflicts
c subsumed:                    614         0.08 %  of all clauses
c strengthened:                122         0.02 %  of all clauses
c 
c seconds are measured in process time for solving
c 
c --- [ resources ] ----------------------------------------------------------
c 
c total process time since initialization:         2.52    seconds
c total real time since initialization:            2.54    seconds
c maximum resident set size of process:          122.11    MB
c 
c --- [ shutting down ] ------------------------------------------------------
c 
c exit 20
